59 21
13 1
74 13
68 55
79 86
92 51
51 69
32 36
4 12
92 72
41 54
8 99
55 7
4 59
1 83
26 12
42 28
17 81
96 84
80 21
72 17
32 6
65 82
95 64
56 10
81 90
51 46
83 95
57 33
43 27
19 74
88 66
81 1
91 99
58 17
58 1
25 73
66 51
4 76
85 51
5 85
54 29
48 90
9 83
78 60
32 88
67 12
77 5
37 85
98 67